6
0.00	85.00	46.00	36.00	62.00	32.00	
85.00	0.00	58.00	94.00	84.00	22.00	
46.00	58.00	0.00	77.00	63.00	83.00	
36.00	94.00	77.00	0.00	80.00	20.00	
62.00	84.00	63.00	80.00	0.00	54.00	
32.00	22.00	83.00	20.00	54.00	0.00	
